# Solution for model problem_
# Objective value = 3.3001775970363145e+04
x(0_0) 0
x(0_1) 0
x(0_2) 1
x(0_3) 0
x(0_4) 0
x(0_5) 0
x(0_6) 0
x(0_7) 0
x(0_8) 0
x(0_9) 0
x(0_10) 0
x(0_11) 0
x(0_12) 0
x(0_13) 0
x(1_14) 0
x(1_15) 0
x(1_16) 0
x(1_17) 0
x(1_18) 0
x(1_19) 0
x(1_20) 0
x(1_21) 0
x(1_22) 1
x(1_23) 0
x(1_24) 0
x(2_25) 0
x(2_26) 0
x(2_27) 0
x(2_28) 0
x(2_29) 0
x(2_30) 0
x(2_31) 0
x(2_32) 0
x(2_33) 0
x(2_34) 0
x(2_35) 0
x(2_36) 0
x(2_37) 0
x(2_38) 0
x(2_39) 0
x(2_40) 1
x(2_41) 0
x(3_42) 0
x(3_43) 0
x(3_44) 0
x(3_45) 0
x(3_46) 0
x(3_47) 0
x(3_48) 0
x(3_49) 0
x(3_50) 0
x(3_51) 0
x(3_52) 0
x(3_53) 0
x(3_54) 0
x(3_55) 1
x(3_56) 0
x(4_57) 0
x(4_58) 0
x(4_59) 1
x(4_60) 0
x(4_61) 0
x(4_62) 0
x(4_63) 0
x(4_64) 0
x(4_65) 0
x(4_66) 0
x(4_67) 0
x(5_68) 0
x(5_69) 0
x(5_70) 0
x(5_71) 0
x(5_72) 0
x(5_73) 0
x(5_74) 1
x(5_75) 0
x(5_76) 0
x(5_77) 0
x(6_78) 1
x(6_79) 0
x(6_80) 0
x(6_81) 0
x(6_82) 0
x(6_83) 0
x(6_84) 0
x(6_85) 0
x(6_86) 0
x(6_87) 0
x(6_88) 0
x(6_89) 0
x(6_90) 0
x(6_91) 0
x(6_92) 0
x(6_93) 0
x(6_94) 0
x(7_95) 0
x(7_96) 0
x(7_97) 0
x(7_98) 0
x(7_99) 0
x(7_100) 0
x(7_101) 0
x(7_102) 0
x(7_103) 0
x(7_104) 1
x(7_105) 0
x(8_106) 0
x(8_107) 0
x(8_108) 0
x(8_109) 0
x(8_110) 0
x(8_111) 0
x(8_112) 0
x(8_113) 0
x(8_114) 0
x(8_115) 0
x(8_116) 0
x(8_117) 0
x(8_118) 0
x(8_119) 1
x(8_120) 0
x(9_121) 1
x(9_122) 0
x(9_123) 0
x(9_124) 0
x(9_125) 0
x(9_126) 0
x(9_127) 0
x(9_128) 0
x(9_129) 0
x(9_130) 0
x(9_131) 0
x(9_132) 0
x(9_133) 0
x(9_134) 0
x(9_135) 0
x(9_136) 0
x(9_137) 0
x(9_138) 0
x(10_139) 0
x(10_140) 0
x(10_141) 0
x(10_142) 0
x(10_143) 0
x(10_144) 0
x(10_145) 0
x(10_146) 0
x(10_147) 0
x(10_148) 0
x(10_149) 0
x(10_150) 0
x(10_151) 1
x(11_152) 0
x(11_153) 0
x(11_154) 0
x(11_155) 0
x(11_156) 0
x(11_157) 0
x(11_158) 0
x(11_159) 0
x(11_160) 0
x(11_161) 0
x(11_162) 0
x(11_163) 0
x(11_164) 0
x(11_165) 0
x(11_166) 1
x(11_167) 0
x(12_168) 0
x(12_169) 0
x(12_170) 0
x(12_171) 0
x(12_172) 0
x(12_173) 0
x(12_174) 1
x(12_175) 0
x(12_176) 0
x(12_177) 0
x(13_178) 0
x(13_179) 0
x(13_180) 0
x(13_181) 0
x(13_182) 0
x(13_183) 0
x(13_184) 0
x(13_185) 0
x(13_186) 1
x(13_187) 0
x(13_188) 0
x(13_189) 0
x(13_190) 0
x(13_191) 0
x(13_192) 0
x(13_193) 0
x(13_194) 0
x(13_195) 0
x(13_196) 0
x(13_197) 0
x(14_198) 0
x(14_199) 0
x(14_200) 0
x(14_201) 0
x(14_202) 0
x(14_203) 0
x(14_204) 1
x(14_205) 0
x(14_206) 0
x(14_207) 0
x(14_208) 0
x(14_209) 0
x(14_210) 0
x(14_211) 0
x(14_212) 0
x_1_0 5.8082900658249855e+01
s_1_0 0
z_1_0 0
x_1_1 0
s_1_1 3.1976125016808510e-01
z_1_1 1
x_1_2 0
s_1_2 4.7634030506014824e-01
z_1_2 1
x_1_3 0
s_1_3 8.3116171881556511e-01
z_1_3 1
x_1_4 0
s_1_4 1.7941362876445055e-01
z_1_4 1
x_1_5 0
s_1_5 7.2932395897805691e-01
z_1_5 1
x_1_6 58.2162612832617
s_1_6 0
z_1_6 0
x_1_7 0
s_1_7 5.7730927318334579e-01
z_1_7 1
x_1_8 5.6535192571580410e+01
s_1_8 0
z_1_8 0
x_1_9 5.8745696758851409e+01
s_1_9 0
z_1_9 0
x_1_10 57.8758753053844
s_1_10 0
z_1_10 0
x_1_11 5.6798366744071245e+01
s_1_11 0
z_1_11 0
x_1_12 5.8283944204449654e+01
s_1_12 0
z_1_12 0
x_1_13 5.8540747679769993e+01
s_1_13 0
z_1_13 0
x_1_14 5.8131562549620867e+01
s_1_14 0
z_1_14 0
x_1_15 5.7682921322062612e+01
s_1_15 0
z_1_15 0
x_1_16 5.8240355327725410e+01
s_1_16 0
z_1_16 0
x_1_17 0
s_1_17 8.1587943714112043e-01
z_1_17 1
x_1_18 0
s_1_18 3.5642888542497531e-01
z_1_18 1
x_1_19 0
s_1_19 3.7716107675805688e-01
z_1_19 1
x_1_20 5.8241501525044441e+01
s_1_20 0
z_1_20 0
x_1_21 5.8151771392673254e+01
s_1_21 0
z_1_21 0
x_1_22 0
s_1_22 0.576653040247038
z_1_22 1
x_1_23 5.8761055788490921e+01
s_1_23 0
z_1_23 0
x_1_24 0
s_1_24 4.5250839809887111e-01
z_1_24 1
x_1_25 0
s_1_25 0.565080382861197
z_1_25 1
x_1_26 5.7680555965751410e+01
s_1_26 0
z_1_26 0
x_1_27 0
s_1_27 5.0961155048571527e-01
z_1_27 1
x_1_28 58.3559495061636
s_1_28 0
z_1_28 0
x_1_29 5.8414682643488050e+01
s_1_29 0
z_1_29 0
x_1_30 5.8399321738630533e+01
s_1_30 0
z_1_30 0
x_1_31 5.7826235566288233e+01
s_1_31 0
z_1_31 0
x_1_32 5.8276947930455208e+01
s_1_32 0
z_1_32 0
x_1_33 5.8592085126787424e+01
s_1_33 0
z_1_33 0
x_1_34 58.0322687253356
s_1_34 0
z_1_34 0
x_1_35 5.7939574934542179e+01
s_1_35 0
z_1_35 0
x_1_36 5.8012187205255032e+01
s_1_36 0
z_1_36 0
x_1_37 5.8963824493810534e+01
s_1_37 0
z_1_37 0
x_1_38 0
s_1_38 5.1186664322449360e-01
z_1_38 1
x_1_39 0
s_1_39 0.613490188261494
z_1_39 1
x_1_40 5.8020394485443830e+01
s_1_40 0
z_1_40 0
x_1_41 58.0049081556499
s_1_41 0
z_1_41 0
x_1_42 5.6639949388802052e+01
s_1_42 0
z_1_42 0
x_1_43 5.7848571579903364e+01
s_1_43 0
z_1_43 0
x_1_44 5.8242851637303829e+01
s_1_44 0
z_1_44 0
x_1_45 0
s_1_45 7.0242299023084342e-01
z_1_45 1
x_1_46 5.8140757355373353e+01
s_1_46 0
z_1_46 0
x_1_47 0
s_1_47 4.0184327914539608e-01
z_1_47 1
x_1_48 5.8965317916125059e+01
s_1_48 0
z_1_48 0
x_1_49 0
s_1_49 7.6233698148280382e-01
z_1_49 1
x_1_50 5.8708835281431675e+01
s_1_50 0
z_1_50 0
x_1_51 0
s_1_51 3.2656522188335657e-01
z_1_51 1
x_1_52 5.7801917151547968e+01
s_1_52 0
z_1_52 0
x_1_53 0
s_1_53 8.3668047096580267e-01
z_1_53 1
x_1_54 5.8461486430838704e+01
s_1_54 0
z_1_54 0
x_1_55 5.8694657981395721e+01
s_1_55 0
z_1_55 0
x_1_56 5.8710027195513248e+01
s_1_56 0
z_1_56 0
x_1_57 5.8598824499174953e+01
s_1_57 0
z_1_57 0
x_1_58 5.8110419223085046e+01
s_1_58 0
z_1_58 0
x_1_59 5.7961850255727768e+01
s_1_59 0
z_1_59 0
x_1_60 5.8926420025527477e+01
s_1_60 0
z_1_60 0
x_1_61 0
s_1_61 5.7490697456523776e-01
z_1_61 1
x_1_62 58.9874660987407
s_1_62 0
z_1_62 0
x_1_63 0
s_1_63 5.0660336716100574e-01
z_1_63 1
x_1_64 0
s_1_64 8.2782492006663233e-01
z_1_64 1
x_1_65 0
s_1_65 5.4620760120451450e-01
z_1_65 1
x_1_66 0
s_1_66 7.0340216625481844e-01
z_1_66 1
x_1_67 5.8133141554892063e+01
s_1_67 0
z_1_67 0
x_1_68 5.8277444936335087e+01
s_1_68 0
z_1_68 0
x_1_69 0
s_1_69 7.1330298576503992e-01
z_1_69 1
x_1_70 0
s_1_70 5.6191532872617245e-01
z_1_70 1
x_1_71 5.8397901471704245e+01
s_1_71 0
z_1_71 0
x_1_72 0
s_1_72 8.4114123787730932e-01
z_1_72 1
x_1_73 0
s_1_73 4.4492622197140008e-01
z_1_73 1
x_1_74 5.6755086682736874e+01
s_1_74 0
z_1_74 0
x_1_75 5.8521743409335613e+01
s_1_75 0
z_1_75 0
x_1_76 5.8798477180302143e+01
s_1_76 0
z_1_76 0
x_1_77 5.9257424034178257e+01
s_1_77 0
z_1_77 0
x_1_78 5.8304254304617643e+01
s_1_78 0
z_1_78 0
x_1_79 58.793860450387
s_1_79 0
z_1_79 0
x_1_80 0
s_1_80 9.5838099450338632e-01
z_1_80 1
x_1_81 5.8175376299768686e+01
s_1_81 0
z_1_81 0
x_1_82 5.8405258387327194e+01
s_1_82 0
z_1_82 0
x_1_83 5.8711613524705172e+01
s_1_83 0
z_1_83 0
x_1_84 0
s_1_84 7.3391886381432414e-01
z_1_84 1
x_1_85 5.9004309456795454e+01
s_1_85 0
z_1_85 0
x_1_86 5.7968763286247849e+01
s_1_86 0
z_1_86 0
x_1_87 5.8725495193153620e+01
s_1_87 0
z_1_87 0
x_1_88 5.8659957724623382e+01
s_1_88 0
z_1_88 0
x_1_89 5.6952837845310569e+01
s_1_89 0
z_1_89 0
x_1_90 5.7625668406486511e+01
s_1_90 0
z_1_90 0
x_1_91 5.8949340937659144e+01
s_1_91 0
z_1_91 0
x_1_92 5.8336285583674908e+01
s_1_92 0
z_1_92 0
x_1_93 5.6321148268878460e+01
s_1_93 0
z_1_93 0
x_1_94 0
s_1_94 5.7602331507951021e-01
z_1_94 1
x_1_95 57.6966692134738
s_1_95 0
z_1_95 0
x_1_96 5.8340172776952386e+01
s_1_96 0
z_1_96 0
x_1_97 5.8571763198822737e+01
s_1_97 0
z_1_97 0
x_1_98 5.8763422749936581e+01
s_1_98 0
z_1_98 0
x_1_99 5.8764142517000437e+01
s_1_99 0
z_1_99 0
x_1_100 58.2155537083745
s_1_100 0
z_1_100 0
x_1_101 5.8869275067001581e+01
s_1_101 0
z_1_101 0
x_1_102 5.8227300017140806e+01
s_1_102 0
z_1_102 0
x_1_103 0
s_1_103 5.2622146345674992e-01
z_1_103 1
x_1_104 0
s_1_104 0.674705648329109
z_1_104 1
x_1_105 0
s_1_105 1.0759688772668596e-01
z_1_105 1
x_1_106 5.8929062929004431e+01
s_1_106 0
z_1_106 0
x_1_107 5.6945199024863541e+01
s_1_107 0
z_1_107 0
x_1_108 5.8873126942664385e+01
s_1_108 0
z_1_108 0
x_1_109 0
s_1_109 8.5827033501118422e-01
z_1_109 1
x_1_110 5.8744260076433420e+01
s_1_110 0
z_1_110 0
x_1_111 5.8462587142363191e+01
s_1_111 0
z_1_111 0
x_1_112 0
s_1_112 6.4944974810350686e-01
z_1_112 1
x_1_113 5.8903909782529809e+01
s_1_113 0
z_1_113 0
x_1_114 5.8530350475572050e+01
s_1_114 0
z_1_114 0
x_1_115 5.8660001166630536e+01
s_1_115 0
z_1_115 0
x_1_116 5.7871656523086131e+01
s_1_116 0
z_1_116 0
x_1_117 5.7740359556861222e+01
s_1_117 0
z_1_117 0
x_1_118 5.7584492072637659e+01
s_1_118 0
z_1_118 0
x_1_119 0
s_1_119 3.3427282725460827e-01
z_1_119 1
x_1_120 5.8495877146720886e+01
s_1_120 0
z_1_120 0
x_1_121 5.7891941692680120e+01
s_1_121 0
z_1_121 0
x_1_122 5.8622473577037454e+01
s_1_122 0
z_1_122 0
x_1_123 5.7377409741282463e+01
s_1_123 0
z_1_123 0
x_1_124 5.8170941606163979e+01
s_1_124 0
z_1_124 0
x_1_125 5.7925810720771551e+01
s_1_125 0
z_1_125 0
x_1_126 5.8546725374646485e+01
s_1_126 0
z_1_126 0
x_1_127 5.7753389626741409e+01
s_1_127 0
z_1_127 0
x_1_128 5.8448994781821966e+01
s_1_128 0
z_1_128 0
x_1_129 5.8336627915501595e+01
s_1_129 0
z_1_129 0
x_1_130 5.7691331192851067e+01
s_1_130 0
z_1_130 0
x_1_131 5.9128708761185408e+01
s_1_131 0
z_1_131 0
x_1_132 5.9141911895945668e+01
s_1_132 0
z_1_132 0
x_1_133 5.7929755001328886e+01
s_1_133 0
z_1_133 0
x_1_134 0
s_1_134 3.7131005001720041e-01
z_1_134 1
x_1_135 5.8896298172883689e+01
s_1_135 0
z_1_135 0
x_1_136 0
s_1_136 0.712800276465714
z_1_136 1
x_1_137 5.8648950219154358e+01
s_1_137 0
z_1_137 0
x_1_138 5.8744113586843014e+01
s_1_138 0
z_1_138 0
x_1_139 0
s_1_139 7.4679778364952654e-01
z_1_139 1
x_1_140 5.8441448815166950e+01
s_1_140 0
z_1_140 0
x_1_141 5.8903714332729578e+01
s_1_141 0
z_1_141 0
x_1_142 5.8118863237090409e+01
s_1_142 0
z_1_142 0
x_1_143 5.8420493176206946e+01
s_1_143 0
z_1_143 0
x_1_144 0
s_1_144 4.2301015486009419e-01
z_1_144 1
x_1_145 0
s_1_145 4.6812163945287466e-01
z_1_145 1
x_1_146 5.8310932813212276e+01
s_1_146 0
z_1_146 0
x_1_147 0
s_1_147 0.70629314891994
z_1_147 1
x_1_148 5.8436064831912518e+01
s_1_148 0
z_1_148 0
x_1_149 0
s_1_149 4.3111127614974976e-01
z_1_149 1
x_1_150 0
s_1_150 7.9553247895091772e-01
z_1_150 1
x_1_151 0
s_1_151 8.6109392903745174e-01
z_1_151 1
x_1_152 0
s_1_152 6.7208579089492559e-01
z_1_152 1
x_1_153 5.8712658817879856e+01
s_1_153 0
z_1_153 0
x_1_154 5.8525746215134859e+01
s_1_154 0
z_1_154 0
x_1_155 5.8483281798660755e+01
s_1_155 0
z_1_155 0
x_1_156 5.8349796058610082e+01
s_1_156 0
z_1_156 0
x_1_157 5.8075573563575745e+01
s_1_157 0
z_1_157 0
x_1_158 0
s_1_158 8.0179358621535357e-01
z_1_158 1
x_1_159 57.823626360856
s_1_159 0
z_1_159 0
x_2_0 3.2774591970363144e+04
